231,406
227,637
293,688
406,681
820,833
576,551
600,566
627,512
441,284
439,230
427,152
444,443
677,435
653,229
732,81
589,121
558,237
510,351
664,430
888,438
1125,336
1093,107
839,188
894,298
880,342
707,419
633,371
342,67
470,115
488,140
899,564
740,397
584,336
937,323
1028,229
1214,490
